4 
5  27 49 
6  05 25 37 50 
7  05 20 38 53 
8  08 23 38 53 
9  08 23 38 53 
10  08 23 38 53 
11  08 23 38 53 
12  08 23 38 53 
13  08 23 38 53 
14  08 23 38 53 
15  08 23 38 53 
16  08 23 38 53 
17  08 23 38 53 
18  08 23 38 53 
19  09 25 40 55 
20  10 25 40 55 
21  10 25 40 55 
22  10 24 39 54 
23  09 24 
0 
